20180518 201100.00 191000.00
20171129 249513.10 190897.33
20170630 249513.10 190897.33
20170524 249513.10 190897.33
20170224 241451.20 190897.33
20170119 241451.20 190897.33
20161206 241451.20 190771.40
20161108 241451.20 190683.70
20160114 231407.54 190615.81
